N = 5;
H = 5;
T = 2;

avail = array3d(1..N, 1..H, 1..T, [5, 2, 1, 0, 7, 7, 2, 5, 1, 8, 7, 0, 2, 5, 9, 8, 5, 10, 9, 3, 7, 9, 0, 10, 8, 2, 9, 3, 0, 3, 1, 0, 10, 6, 4, 4, 8, 4, 3, 8, 4, 7, 9, 2, 7, 4, 3, 8, 1, 6]);

r = array2d(1..H, 1..T, [0, 1, 1, 1, 1, 0, 2, 2, 2, 1]);
